c This is QMaxSAT 2017 based on 14.07
c This is Glucose 3.0
c This is MiniSat 2.2.0
c WARNING: for repeatability, setting FPU to use double precision
c card = mrwto, comp = 0, pmodel = 0, narr = 5, mct = 24, verb = 0
cr firstCPXsol 0 0 0
c top = 81479
c |  Number of variables:    1742531                                          |
c |  Number of clauses:      91064554                                         |
c |  Weight of hard clauses: 81479                                            |
c |  Number of soft clauses: 2760                                             |
c |  Number of unit soft clauses: 2760                                        |
c |  Maximum Cardinality (by unit): 407390       (407390      )               |
c last restart ## conflicts  :  125 193072 
o 1339 | cpuTime 22.5542 s
c Sum of weights = 81478
c A number of soft clauses remained = 552
c MRWTO encoding for Pseudo-Boolean Constraints
c sizeMax=1339
c No.0 Divisor=12	generated by pow1
c No.1 Divisor=12	generated by pow1
c No.2 Divisor=12	generated by pow1
c p0= 12	p1= 12	p2= 12	
c number of digits = 4
c linkingVar[0].size = 12, linkingVar[1].size = 12, linkingVar[2].size = 10, linkingVar[3].size = 1, 
c Pseudo-Boolean Constraints: 12051 variables and 115467 clauses
c Sum of weights = 81478
c A number of soft clauses remained = 552
c MRWTO encoding for Pseudo-Boolean Constraints
c sizeMax=1339
c No.0 Divisor=12	generated by pow1
c No.1 Divisor=12	generated by pow1
c No.2 Divisor=12	generated by pow1
c p0= 12	p1= 12	p2= 12	
c number of digits = 4
c linkingVar[0].size = 12, linkingVar[1].size = 12, linkingVar[2].size = 10, linkingVar[3].size = 1, 
c Pseudo-Boolean Constraints: 12051 variables and 115467 clauses
c Sum of weights = 81478
c A number of soft clauses remained = 552
c MRWTO encoding for Pseudo-Boolean Constraints
c sizeMax=1339
c No.0 Divisor=12	generated by pow1
c No.1 Divisor=12	generated by pow1
c No.2 Divisor=12	generated by pow1
c p0= 12	p1= 12	p2= 12	
c number of digits = 4
c linkingVar[0].size = 12, linkingVar[1].size = 12, linkingVar[2].size = 10, linkingVar[3].size = 1, 
c Pseudo-Boolean Constraints: 12051 variables and 115467 clauses
c Sum of weights = 81478
c A number of soft clauses remained = 552
c MRWTO encoding for Pseudo-Boolean Constraints
c sizeMax=1339
c No.0 Divisor=12	generated by pow1
c No.1 Divisor=12	generated by pow1
c No.2 Divisor=12	generated by pow1
c p0= 12	p1= 12	p2= 12	
c number of digits = 4
c linkingVar[0].size = 12, linkingVar[1].size = 12, linkingVar[2].size = 10, linkingVar[3].size = 1, 
c Pseudo-Boolean Constraints: 12051 variables and 115467 clauses
c Sum of weights = 81478
c A number of soft clauses remained = 552
c MRWTO encoding for Pseudo-Boolean Constraints
c sizeMax=1339
c No.0 Divisor=12	generated by pow1
c No.1 Divisor=12	generated by pow1
c No.2 Divisor=12	generated by pow1
c p0= 12	p1= 12	p2= 12	
c number of digits = 4
c linkingVar[0].size = 12, linkingVar[1].size = 12, linkingVar[2].size = 10, linkingVar[3].size = 1, 
c Pseudo-Boolean Constraints: 12051 variables and 115467 clauses
c last restart ## conflicts  :  34 204052 
o 1027 | cpuTime 23.37 s
c last restart ## conflicts  :  227 205298 
o 1025 | cpuTime 187.742 s
c last restart ## conflicts  :  276 196028 
o 883 | cpuTime 297.219 s
c last restart ## conflicts  :  465 202821 
o 834 | cpuTime 828.754 s
c last restart ## conflicts  :  319 198436 
o 755 | cpuTime 1081.54 s
c last restart ## conflicts  :  259 211686 
o 754 | cpuTime 1655.88 s
c last restart ## conflicts  :  558 208175 
o 753 | cpuTime 2231.58 s
c last restart ## conflicts  :  515 211303 
o 748 | cpuTime 2632.66 s
c last restart ## conflicts  :  140 206202 
o 732 | cpuTime 2700.79 s
c last restart ## conflicts  :  400 212408 
o 697 | cpuTime 2891.29 s
s UNKNOWN
c Search is stopped by a limit (maybe time-limit)
cr positiVarArr: [ | 23@1(1->23) | 241@1(11->1) | 539@1(23->11) | 600@2(1->24) | 625@2(3->1) | 737@2(7->17) | 978@2(17->18) | 987@2(18->3) | 1135@2(24->7) | 1166@3(1->14) | 1345@3(9->1) | 1484@3(14->20) | 1617@3(20->9) | 1750@4(1->22) | 1757@4(2->5) | 1825@4(5->1) | 2066@4(15->2) | 2175@4(19->15) | 2251@4(22->19) | 2310@5(1->6) | 2388@5(4->12) | 2432@5(6->8) | 2493@5(8->21) | 2533@5(10->13) | 2584@5(12->16) | 2596@5(13->4) | 2665@5(16->1) | 2794@5(21->10) | ]
cr the 1-th chain: [ 1->23->11->1 ] (#non-depot=2) {#cumul.=3}
cr the 2-th chain: [ 1->24->7->17->18->3->1 ] (#non-depot=5) {#cumul.=8}
cr the 3-th chain: [ 1->14->20->9->1 ] (#non-depot=3) {#cumul.=11}
cr the 4-th chain: [ 1->22->19->15->2->5->1 ] (#non-depot=5) {#cumul.=16}
cr the 5-th chain: [ 1->6->8->21->10->13->4->12->16->1 ] (#non-depot=8) {#cumul.=24}
c Latest Answer = 0 by 11 loops
c restarts              : 20125
c conflicts             : 2913569        (810 /sec)
c decisions             : 27108906       (0.00 % random) (7533 /sec)
c propagations          : 18887092622    (5248362 /sec)
c conflict literals     : 430658615      (27.25 % deleted)
c Memory used           : 9424.00 MB
c CPU time              : 3598.66 s
